1 3 100 74767.61
1 3 200 77467.71
1 3 300 76362.13
2 3 100 93539.47
2 3 200 101529.19
2 3 300 101497.39
3 3 100 95228.48
3 3 200 102042.66
3 3 300 98254.71
4 3 100 89424.56
4 3 200 96910.63
4 3 300 94818.71
5 3 100 84288.16
5 3 200 85185.73
5 3 300 88063.80
